p cnf 50 10
x -2 4 -9 10 -11 -13 -14 16 17 18 -19 23 24 27 -29 30 -31 32 33 35 -37 -38 39 -41 -42 44 -47 -50 0
x -2 -4 5 6 7 9 12 13 -14 -22 23 24 -25 26 27 28 -29 30 -35 -36 -37 38 -39 49 0
x -1 2 -4 6 -7 10 -13 14 15 16 17 -18 22 23 28 29 -30 34 35 37 -42 43 -44 45 -50 0
x 2 -3 -4 -6 -8 10 -12 14 21 23 -24 -25 -26 -27 30 -32 34 37 -38 -39 41 42 -44 -45 -46 0
x -1 5 9 13 14 15 -17 -18 21 25 -27 30 -31 -33 35 36 -39 42 44 -47 -49 50 0
x -1 3 6 7 9 10 -11 19 21 22 -23 -28 -29 32 33 -35 -36 38 39 -41 42 43 -47 49 50 0
x 1 3 5 -12 -14 -18 -22 -26 30 -31 33 34 -38 -39 -40 -42 45 48 -49 -50 0
x 1 -4 -5 -7 -8 -9 10 -11 -12 13 -15 16 17 20 21 22 24 26 27 -28 -30 31 -33 -35 -36 -40 42 44 -47 48 49 50 0
x 1 -3 -5 -8 10 -11 12 -17 -20 -21 22 -25 -28 29 31 -32 36 -37 -41 43 -44 50 0
x 1 -4 -5 6 -7 8 -9 -10 11 -13 15 -18 20 21 -22 23 -25 -26 -28 -29 -33 -35 36 47 48 0
g -10